10 45
1 2 3
1 3 26
1 4 15
1 5 28
1 6 26
1 7 9
1 8 20
1 9 11
1 10 22
2 3 7
2 4 2
2 5 0
2 6 22
2 7 8
2 8 21
2 9 26
2 10 26
3 4 27
3 5 19
3 6 16
3 7 29
3 8 6
3 9 6
3 10 16
4 5 9
4 6 5
4 7 7
4 8 5
4 9 2
4 10 6
5 6 26
5 7 13
5 8 11
5 9 26
5 10 25
6 7 3
6 8 10
6 9 11
6 10 29
7 8 13
7 9 19
7 10 25
8 9 14
8 10 0
9 10 10
